CMD:
./solvers/bin/cadical --plain --no-reduce -t 1600 ./data/cnfs//bob2/bob2.54.cnf

c --- [ banner ] -------------------------------------------------------------
c 
c CaDiCaL SAT Solver
c Copyright (c) 2016-2024
c A. Biere, M. Fleury, N. Froleyks, K. Fazekas, F. Pollitt, T. Faller
c JKU Linz, University of Freiburg, TU Wien
c 
c Version 2.1.3 5296d3d2a9bf48c154ab2acb5e44625776d821bf
c g++ (Gentoo 12.3.1_p20230526 p2) 12.3.1 20230526 -Wall -Wextra -O3 -DNDEBUG
c Sat Aug 9 07:26:21 PDT 2025 Linux cedar2.int.cedar.computecanada.ca 5.14.0-362.24.2.el9_3.x86_64 x86_64
c 
c --- [ limit ] --------------------------------------------------------------
c 
c setting time limit to 1600 seconds real time (due to '-t 1600')
c 
c --- [ parsing input ] ------------------------------------------------------
c 
c reading DIMACS file from './data/cnfs//bob2/bob2.54.cnf'
c opening file to read './data/cnfs//bob2/bob2.54.cnf'
c found 'p cnf 6964 20164' header
c parsed 20164 clauses in 0.00 seconds process time
c 
c --- [ options ] ------------------------------------------------------------
c 
c   --compact=false                (different from default 'true')
c   --decompose=false              (different from default 'true')
c   --deduplicate=false            (different from default 'true')
c   --elim=false                   (different from default 'true')
c   --probe=false                  (different from default 'true')
c   --reduce=false                 (different from default 'true')
c   --subsume=false                (different from default 'true')
c   --ternary=false                (different from default 'true')
c   --transred=false               (different from default 'true')
c   --vivify=false                 (different from default 'true')
c 
c --- [ solving ] ------------------------------------------------------------
c 
c time measured in process time since initialization
c 
c  seconds  reductions  redundant  irredundant
c         MB    restarts       trail     variables
c          level   conflicts       glue       remaining
c 
c *  0.00  7  0 0   0    0    0  0% 0 19371 6369 91%
c {  0.00  7  0 0   0    0    0  0% 0 19371 6369 91%
c }  0.01  7 22 0 163 1000  942 23% 3 19371 6369 91%
c [  0.01  7  0 0 163 1000  942  0% 0 19371 6369 91%
c O  0.01  7 11 0 163 1002  944 15% 1 19371 6369 91%
c ]  0.04  8 65 0 164 3000 2796 54% 4 19371 6369 91%
c {  0.04  8 22 0 164 3000 2796 23% 3 19371 6369 91%
c F  0.04  8 22 0 165 3003 2799 23% 3 19371 6369 91%
c i  0.04  8 22 0 166 3004 2799 23% 3 19371 6367 91%
c i  0.04  8 22 0 166 3006 2799 23% 3 19371 6362 91%
c i  0.05  8 23 0 174 3201 2983 24% 3 19371 6361 91%
c i  0.05  8 22 0 174 3204 2985 24% 3 19371 6360 91%
c i  0.08  8 18 0 513 5233 4819 22% 3 19371 6359 91%
c i  0.08  8 18 0 513 5246 4830 22% 3 19371 6356 91%
c i  0.08  8 18 0 513 5280 4859 23% 3 19371 6355 91%
c i  0.09  8 19 0 514 5646 5188 24% 3 19371 6354 91%
c #  0.09  8 20 0 536 6007 5516 25% 3 19371 6354 91%
c i  0.09  8 19 0 563 6149 5636 24% 3 19371 6353 91%
c i  0.10  8 19 0 622 6662 6121 25% 3 19371 6352 91%
c i  0.11  8 19 0 643 6750 6196 25% 3 19371 6350 91%
c 
c  seconds  reductions  redundant  irredundant
c         MB    restarts       trail     variables
c          level   conflicts       glue       remaining
c 
c }  0.11  8 19 0 667 7003 6432 25% 3 19371 6350 91%
c [  0.11  8 65 0 667 7003 6432 54% 4 19371 6350 91%
c i  0.11  8 64 0 667 7043 6468 54% 4 19371 6332 91%
c i  0.11  8 63 0 667 7082 6501 53% 4 19371 6331 91%
c i  0.13  8 48 0 668 7936 7176 43% 4 19371 6306 91%
c i  0.13  8 47 0 668 7996 7217 43% 4 19371 6267 90%
c i  0.13  8 47 0 668 7999 7218 43% 4 19371 6246 90%
c i  0.13  8 47 0 668 8000 7218 43% 4 19371 6241 90%
c ]  0.13  8 47 0 668 8012 7225 43% 4 19371 6082 87%
c 0  0.13  8 47 0 668 8012 7225 43% 4 19371 6082 87%
c 
c --- [ result ] -------------------------------------------------------------
c 
s UNSATISFIABLE
c 
c --- [ run-time profiling ] -------------------------------------------------
c 
c process time taken by individual solving procedures
c (percentage relative to process time for solving)
c 
c         0.13   99.96% search
c         0.08   60.58% unstable
c         0.05   39.14% stable
c         0.00    2.43% parse
c         0.00    0.21% lucky
c         0.00    0.00% simplify
c   =================================
c         0.13   97.40% solve
c 
c last line shows process time for solving
c (percentage relative to total process time)
c 
c --- [ statistics ] ---------------------------------------------------------
c 
c chronological:              3013        37.61 %  of conflicts
c conflicts:                  8012     64000.26    per second
c decisions:                 20214    161470.44    per second
c fixed:                       882        12.67 %  of all variables
c learned:                    7755        96.79 %  per conflict
c learned_lits:              99405       100.00 %  learned literals
c minimized:                     0         0.00 %  learned literals
c shrunken:                  16190        16.29 %  learned literals
c minishrunken:              14815        14.90 %  learned literals
c otfs:                        100         1.25 %  of conflict
c propagations:            1403194        11.21 M  per second
c rephased:                      3      2670.67    interval
c restarts:                    668        11.99    interval
c stabilizing:                   2        37.54 %  of conflicts
c subsumed:                    512         1.89 %  of all clauses
c strengthened:                 99         0.37 %  of all clauses
c 
c seconds are measured in process time for solving
c 
c --- [ resources ] ----------------------------------------------------------
c 
c total process time since initialization:         0.13    seconds
c total real time since initialization:            0.13    seconds
c maximum resident set size of process:           32.98    MB
c 
c --- [ shutting down ] ------------------------------------------------------
c 
c exit 20
